multiplesModelToConstraint.smt2
(declare-fun x ()
Int )
(declare-fun y ()
Int )
(declare-fun z ()
Int )
(assert (> x y )
)
(assert (> y z )
)
(check-sat )
(echo "model-to-constraint-start-1") ; used to indentify the model coverted to constraints
(echo "(x y)") ; symbols coverted to constraints
(get-model )
(echo "model-to-constraint-end-1") ; used to indentify the model coverted to constraints
(echo "model-to-constraint-start-2") ; used to indentify the model coverted to constraints
(echo "(z)") ; symbols coverted to constraints
(get-model )
(echo "model-to-constraint-end-2") ; used to indentify the model coverted to constraints
(define-fun x_from_model_1 ()
Int 1 )
(define-fun y_from_model_1 ()
Int 0 )
(assert (or (not (= x x_from_model_1 )
)
(not (= y y_from_model_1 )
)
)
)
(define-fun z_from_model_2 ()
Int (- 1 )
)
(assert (not (= z z_from_model_2 )
)
)
(check-sat )
(echo "model-to-constraint-start-3") ; used to indentify the model coverted to constraints
(echo "(x y z)") ; symbols coverted to constraints
(get-model )
(echo "model-to-constraint-end-3") ; used to indentify the model coverted to constraints
(define-fun x_from_model_3 ()
Int 0 )
(define-fun z_from_model_3 ()
Int (- 2 )
)
(define-fun y_from_model_3 ()
Int (- 1 )
)
(assert (or (not (= x x_from_model_3 )
)
(not (= y y_from_model_3 )
)
(not (= z z_from_model_3 )
)
)
)
